networks/rf_158_1235/rf_158_1235-lower.txt
Number of groups: 37
Flow 1: {1 5 0} {5 14 0} {14 13 0} {13 92 0} 
Flow 2: {14 8 0} {8 15 0} {15 94 0} 
Flow 3: {1 4 0} {4 6 0} {6 42 0} {42 19 0} {19 18 0} {18 97 0} 
Flow 4: {8 12 0} {12 21 0} {21 100 0} 
Flow 5: {12 24 0} {24 103 0} 
Flow 6: {1 3 0} {3 32 0} {32 111 0} 
Flow 7: {4 7 0} {7 36 0} {36 35 0} {35 114 0} 
Flow 8: {5 43 0} {43 122 0} 
Flow 9: {1 2 0} {2 48 0} {48 127 0} 
Flow 10: {3 47 0} {47 50 0} {50 129 0} 
Flow 11: {50 53 0} {53 132 0} 
Flow 12: {15 60 0} {60 139 0} 
Flow 13: {2 64 0} {64 62 0} {62 141 0} 
Flow 14: {48 67 0} {67 146 0} 
Flow 15: {67 78 0} {78 76 0} {76 155 0} 
Flow 16: {47 2 0} {2 81 0} 
Flow 17: {3 4 0} {4 83 0} 
Flow 18: {3 1 0} Flow 20: {5 17 0} {17 96 0} 
Flow 21: {53 10 0} {10 18 0} Flow 22: {19 98 0} 
Flow 22: {32 6 0} Flow 23: {19 25 0} {25 12 0} Flow 25: {5 26 0} {26 105 0} 
Flow 26: {14 68 0} {68 28 0} {28 27 0} {27 106 0} 
Flow 27: {28 107 0} 
Flow 29: {47 33 0} {33 112 0} 
Flow 30: {32 31 0} {31 35 0} Flow 31: {12 22 0} {22 38 0} {38 117 0} 
Flow 32: {38 39 0} {39 118 0} 
Flow 33: {42 40 0} {40 41 0} {41 120 0} 
Flow 35: {33 46 0} {46 125 0} 
Flow 36: {47 126 0} 
Flow 37: {3 48 0} Flow 40: {15 59 0} {59 138 0} 
Flow 42: {47 64 0} Flow 44: {25 55 0} {55 69 0} {69 148 0} 
Flow 46: {6 48 0} {48 2 0} Flow 47: {6 4 0} Flow 48: {12 13 0} Flow 49: {12 8 0} Flow 50: {41 43 0} {43 5 0} Flow 58: {6 32 0} Flow 59: {31 33 0} Flow 65: {7 46 0} Flow 66: {42 47 0} Flow 72: {6 64 0} Flow 76: {8 13 0} Flow 78: {8 14 0} {14 17 0} Flow 79: {12 25 0} {25 19 0} Flow 83: {19 42 0} {42 6 0} Flow 84: {14 5 0} {5 1 0} Flow 86: {14 49 0} {49 43 0} Flow 87: {2 33 0} Flow 90: {49 50 0} Flow 91: {8 10 0} {10 53 0} Flow 93: {50 52 0} {52 62 0} Flow 94: {53 74 0} {74 67 0} Flow 95: {53 51 0} {51 76 0} Flow 96: {9 72 0} {72 73 0} {73 10 0} {53 50 0} {50 47 0} Flow 97: {9 55 0} {55 25 0} Flow 98: {9 12 0} Flow 105: {60 58 0} {58 28 0} Flow 112: {43 41 0} Flow 121: {67 62 0} Flow 123: {9 69 0} Flow 125: {11 8 0} Flow 132: {11 21 0} Flow 133: {21 24 0} Flow 134: {14 26 0} Flow 140: {21 22 0} Flow 153: {11 9 0} Flow 174: {18 10 0} Flow 180: {12 9 0} Flow 182: {13 8 0} Flow 183: {13 12 0} Flow 187: {13 14 0} Flow 194: {15 8 0} Flow 199: {15 21 0} Flow 219: {16 14 0} Flow 224: {16 5 0} Flow 234: {17 5 0} Flow 236: {17 14 0} Flow 251: {41 40 0} {40 42 0} Flow 262: {18 19 0} Flow 265: {50 49 0} {49 14 0} Flow 290: {20 18 0} Flow 292: {20 10 0} Flow 296: {47 3 0} Flow 297: {33 31 0} Flow 302: {64 48 0} Flow 309: {21 12 0} Flow 311: {42 7 0} {7 86 0} 
Flow 312: {8 87 0} 
Flow 313: {10 89 0} 
Flow 315: {21 15 0} Flow 323: {31 110 0} 
Flow 327: {36 115 0} 
Flow 337: {58 137 0} 
Flow 344: {51 78 0} {78 157 0} 
Flow 345: {22 12 0} Flow 348: {22 21 0} Flow 374: {26 14 0} Flow 376: {26 5 0} Flow 380: {27 28 0} {28 68 0} {68 14 0} Flow 382: {28 58 0} {58 60 0} {60 15 0} Flow 428: {30 14 0} Flow 456: {32 3 0} Flow 470: {35 36 0} Flow 488: {33 2 0} {2 1 0} Flow 490: {33 47 0} Flow 491: {47 42 0} Flow 493: {31 32 0} Flow 504: {47 67 0} Flow 506: {34 6 0} Flow 513: {34 31 0} Flow 525: {35 31 0} Flow 526: {36 7 0} {7 4 0} Flow 527: {31 34 0} Flow 528: {4 1 0} Flow 547: {7 48 0} Flow 557: {37 7 0} Flow 562: {7 42 0} Flow 569: {37 35 0} Flow 583: {48 64 0} Flow 587: {38 22 0} Flow 618: {39 38 0} Flow 650: {43 49 0} Flow 673: {44 5 0} Flow 674: {44 14 0} Flow 694: {45 48 0} Flow 695: {45 32 0} Flow 696: {48 7 0} Flow 698: {2 47 0} Flow 733: {46 7 0} Flow 767: {48 6 0} Flow 769: {48 45 0} Flow 806: {10 73 0} {73 72 0} {72 9 0} Flow 808: {51 74 0} {67 48 0} Flow 810: {51 53 0} Flow 811: {10 8 0} Flow 827: {67 47 0} Flow 837: {52 50 0} Flow 850: {62 67 0} Flow 880: {57 15 0} Flow 935: {59 15 0} Flow 984: {61 62 0} {62 52 0} Flow 986: {62 64 0} {64 47 0} Flow 987: {64 6 0} Flow 992: {65 45 0} Flow 993: {65 34 0} Flow 1011: {65 63 0} {63 64 0} Flow 1023: {67 74 0} {74 53 0} Flow 1049: {70 42 0} Flow 1141: {75 53 0} Flow 1169: {76 78 0} {78 67 0} Flow 1172: {76 51 0} Flow 1205: {77 67 0} Flow 1207: {77 51 0} Time taken running everything: 1 seconds
